f:889988
solution:
139 32 89 59 9 109 177 152 179 13 101 138 40 86 35 168 175 121 0 10 156 127 80 187 171 31 53 173 194 151 22 184 79 146 98 169 128 125 66 60 30 176 142 55 147 84 163 157 52 124 4 106 46 16 25 48 15 166 137 143 161 190 71 104 28 167 41 91 120 193 47 114 81 117 63 130 39 23 5 165 26 43 29 159 92 122 1 170 113 182 191 72 20 131 77 27 36 94 115 107 154 116 37 185 88 192 155 145 6 99 108 178 44 103 50 65 102 75 174 136 164 129 19 133 17 96 148 90 196 85 162 68 198 132 8 135 69 97 119 150 33 93 183 199 126 87 49 24 14 158 76 70 153 172 110 141 62 64 78 12 189 188 11 100 144 34 140 51 95 160 57 83 195 186 123 18 58 149 45 2 180 74 197 181 73 112 111 21 56 82 67 105 118 3 61 54 38 7 134 42 
